certificates/rado_a15_c189_N52.cnf
c Rad2 upper bound instance: x1 + 15*x2 - x3 = 189, interval [1,52]
p cnf 52 356
1 7 13 0
-1 -7 -13 0
1 14 22 0
-1 -14 -22 0
1 15 37 0
-1 -15 -37 0
1 16 52 0
-1 -16 -52 0
2 8 13 0
-2 -8 -13 0
2 14 23 0
-2 -14 -23 0
2 15 38 0
-2 -15 -38 0
3 9 13 0
-3 -9 -13 0
3 14 24 0
-3 -14 -24 0
3 15 39 0
-3 -15 -39 0
4 10 13 0
-4 -10 -13 0
4 14 25 0
-4 -14 -25 0
4 15 40 0
-4 -15 -40 0
5 11 13 0
-5 -11 -13 0
5 14 26 0
-5 -14 -26 0
5 15 41 0
-5 -15 -41 0
6 12 13 0
-6 -12 -13 0
6 14 27 0
-6 -14 -27 0
6 15 42 0
-6 -15 -42 0
7 13 0
-7 -13 0
7 14 28 0
-7 -14 -28 0
7 15 43 0
-7 -15 -43 0
8 13 14 0
-8 -13 -14 0
8 14 29 0
-8 -14 -29 0
8 15 44 0
-8 -15 -44 0
9 13 15 0
-9 -13 -15 0
9 14 30 0
-9 -14 -30 0
9 15 45 0
-9 -15 -45 0
1 10 12 0
-1 -10 -12 0
10 13 16 0
-10 -13 -16 0
10 14 31 0
-10 -14 -31 0
10 15 46 0
-10 -15 -46 0
2 11 12 0
-2 -11 -12 0
11 13 17 0
-11 -13 -17 0
11 14 32 0
-11 -14 -32 0
11 15 47 0
-11 -15 -47 0
3 12 0
-3 -12 0
12 13 18 0
-12 -13 -18 0
12 14 33 0
-12 -14 -33 0
12 15 48 0
-12 -15 -48 0
4 12 13 0
-4 -12 -13 0
13 19 0
-13 -19 0
13 14 34 0
-13 -14 -34 0
13 15 49 0
-13 -15 -49 0
5 12 14 0
-5 -12 -14 0
13 14 20 0
-13 -14 -20 0
14 35 0
-14 -35 0
14 15 50 0
-14 -15 -50 0
6 12 15 0
-6 -12 -15 0
13 15 21 0
-13 -15 -21 0
14 15 36 0
-14 -15 -36 0
15 51 0
-15 -51 0
7 12 16 0
-7 -12 -16 0
13 16 22 0
-13 -16 -22 0
14 16 37 0
-14 -16 -37 0
15 16 52 0
-15 -16 -52 0
8 12 17 0
-8 -12 -17 0
13 17 23 0
-13 -17 -23 0
14 17 38 0
-14 -17 -38 0
9 12 18 0
-9 -12 -18 0
13 18 24 0
-13 -18 -24 0
14 18 39 0
-14 -18 -39 0
10 12 19 0
-10 -12 -19 0
13 19 25 0
-13 -19 -25 0
14 19 40 0
-14 -19 -40 0
11 12 20 0
-11 -12 -20 0
13 20 26 0
-13 -20 -26 0
14 20 41 0
-14 -20 -41 0
12 21 0
-12 -21 0
13 21 27 0
-13 -21 -27 0
14 21 42 0
-14 -21 -42 0
12 13 22 0
-12 -13 -22 0
13 22 28 0
-13 -22 -28 0
14 22 43 0
-14 -22 -43 0
12 14 23 0
-12 -14 -23 0
13 23 29 0
-13 -23 -29 0
14 23 44 0
-14 -23 -44 0
12 15 24 0
-12 -15 -24 0
13 24 30 0
-13 -24 -30 0
14 24 45 0
-14 -24 -45 0
1 11 25 0
-1 -11 -25 0
12 16 25 0
-12 -16 -25 0
13 25 31 0
-13 -25 -31 0
14 25 46 0
-14 -25 -46 0
2 11 26 0
-2 -11 -26 0
12 17 26 0
-12 -17 -26 0
13 26 32 0
-13 -26 -32 0
14 26 47 0
-14 -26 -47 0
3 11 27 0
-3 -11 -27 0
12 18 27 0
-12 -18 -27 0
13 27 33 0
-13 -27 -33 0
14 27 48 0
-14 -27 -48 0
4 11 28 0
-4 -11 -28 0
12 19 28 0
-12 -19 -28 0
13 28 34 0
-13 -28 -34 0
14 28 49 0
-14 -28 -49 0
5 11 29 0
-5 -11 -29 0
12 20 29 0
-12 -20 -29 0
13 29 35 0
-13 -29 -35 0
14 29 50 0
-14 -29 -50 0
6 11 30 0
-6 -11 -30 0
12 21 30 0
-12 -21 -30 0
13 30 36 0
-13 -30 -36 0
14 30 51 0
-14 -30 -51 0
7 11 31 0
-7 -11 -31 0
12 22 31 0
-12 -22 -31 0
13 31 37 0
-13 -31 -37 0
14 31 52 0
-14 -31 -52 0
8 11 32 0
-8 -11 -32 0
12 23 32 0
-12 -23 -32 0
13 32 38 0
-13 -32 -38 0
9 11 33 0
-9 -11 -33 0
12 24 33 0
-12 -24 -33 0
13 33 39 0
-13 -33 -39 0
10 11 34 0
-10 -11 -34 0
12 25 34 0
-12 -25 -34 0
13 34 40 0
-13 -34 -40 0
11 35 0
-11 -35 0
12 26 35 0
-12 -26 -35 0
13 35 41 0
-13 -35 -41 0
11 12 36 0
-11 -12 -36 0
12 27 36 0
-12 -27 -36 0
13 36 42 0
-13 -36 -42 0
11 13 37 0
-11 -13 -37 0
12 28 37 0
-12 -28 -37 0
13 37 43 0
-13 -37 -43 0
11 14 38 0
-11 -14 -38 0
12 29 38 0
-12 -29 -38 0
13 38 44 0
-13 -38 -44 0
11 15 39 0
-11 -15 -39 0
12 30 39 0
-12 -30 -39 0
13 39 45 0
-13 -39 -45 0
1 10 40 0
-1 -10 -40 0
11 16 40 0
-11 -16 -40 0
12 31 40 0
-12 -31 -40 0
13 40 46 0
-13 -40 -46 0
2 10 41 0
-2 -10 -41 0
11 17 41 0
-11 -17 -41 0
12 32 41 0
-12 -32 -41 0
13 41 47 0
-13 -41 -47 0
3 10 42 0
-3 -10 -42 0
11 18 42 0
-11 -18 -42 0
12 33 42 0
-12 -33 -42 0
13 42 48 0
-13 -42 -48 0
4 10 43 0
-4 -10 -43 0
11 19 43 0
-11 -19 -43 0
12 34 43 0
-12 -34 -43 0
13 43 49 0
-13 -43 -49 0
5 10 44 0
-5 -10 -44 0
11 20 44 0
-11 -20 -44 0
12 35 44 0
-12 -35 -44 0
13 44 50 0
-13 -44 -50 0
6 10 45 0
-6 -10 -45 0
11 21 45 0
-11 -21 -45 0
12 36 45 0
-12 -36 -45 0
13 45 51 0
-13 -45 -51 0
7 10 46 0
-7 -10 -46 0
11 22 46 0
-11 -22 -46 0
12 37 46 0
-12 -37 -46 0
13 46 52 0
-13 -46 -52 0
8 10 47 0
-8 -10 -47 0
11 23 47 0
-11 -23 -47 0
12 38 47 0
-12 -38 -47 0
9 10 48 0
-9 -10 -48 0
11 24 48 0
-11 -24 -48 0
12 39 48 0
-12 -39 -48 0
10 49 0
-10 -49 0
11 25 49 0
-11 -25 -49 0
12 40 49 0
-12 -40 -49 0
10 11 50 0
-10 -11 -50 0
11 26 50 0
-11 -26 -50 0
12 41 50 0
-12 -41 -50 0
10 12 51 0
-10 -12 -51 0
11 27 51 0
-11 -27 -51 0
12 42 51 0
-12 -42 -51 0
10 13 52 0
-10 -13 -52 0
11 28 52 0
-11 -28 -52 0
12 43 52 0
-12 -43 -52 0
