certificates/rado_a15_c189_N52.drat
10 15 -52 0
15 -52 0
d 10 15 -52 0
49 -52 0
-15 -52 0
d -16 -15 -52 0
-52 0
-49 0
10 0
15 0
-51 0
-46 0
13 0
-7 0
-19 0
-4 0
-9 0
-16 0
-21 0
12 0
1 0
-3 0
0
